\ This file has been generated by DOcplex
\ ENCODING=ISO-8859-1
\Problem name: Qrandom20142_6.lp

Minimize
 obj: - 7512 x0 - 3756 x1 - 1878 x2 - 7492 x3 - 3746 x4 - 1873 x5 + [ 4288 x0^2
      + 4288 x0*x1 + 2144 x0*x2 + 8576 x0*x3 + 4288 x0*x4 + 2144 x0*x5
      + 1072 x1^2 + 1072 x1*x2 + 4288 x1*x3 + 2144 x1*x4 + 1072 x1*x5 + 268 x2^2
      + 2144 x2*x3 + 1072 x2*x4 + 536 x2*x5 + 4352 x3^2 + 4352 x3*x4
      + 2176 x3*x5 + 1088 x4^2 + 1088 x4*x5 + 272 x5^2 ]/2 + 6566
Subject To

Bounds
 0 <= x0 <= 1
 0 <= x1 <= 1
 0 <= x2 <= 1
 0 <= x3 <= 1
 0 <= x4 <= 1
 0 <= x5 <= 1

Binaries
 x0 x1 x2 x3 x4 x5
End
